#------------------------------------------------------------------------------
#$Date: 2019-12-14 03:15:32 +0200 (Sat, 14 Dec 2019) $
#$Revision: 245171 $
#$URL: file:///home/coder/svn-repositories/cod/cif/4/03/76/4037663.cif $
#------------------------------------------------------------------------------
#
# This file is available in the Crystallography Open Database (COD),
# http://www.crystallography.net/
#
# All data on this site have been placed in the public domain by the
# contributors.
#
data_4037663
loop_
_publ_author_name
'Brunner, Henri'
'Tsuno, Takashi'
'Bal\'azs, G\'abor'
_publ_section_title
;
 Chiral Selectivity in the Achiral Amino Acid Glycine.
;
_journal_name_full               'The Journal of organic chemistry'
_journal_paper_doi               10.1021/acs.joc.9b02726
_journal_year                    2019
_chemical_absolute_configuration ad
_chemical_formula_moiety         'C2 H5 N O2'
_chemical_formula_sum            'C2 H5 N O2'
_chemical_formula_weight         75.07
_chemical_name_systematic        'Glycine beta'
_space_group_crystal_system      trigonal
_space_group_IT_number           145
_space_group_name_Hall           'P 32'
_space_group_name_H-M_alt        'P 32'
_atom_sites_solution_hydrogens   geom
_atom_sites_solution_primary     dual
_audit_creation_date             2019-05-15
_audit_creation_method
;
Olex2 1.2
(compiled 2018.05.29 svn.r3508 for OlexSys, GUI svn.r5506)
;
_cell_angle_alpha                90
_cell_angle_beta                 90
_cell_angle_gamma                120
_cell_formula_units_Z            3
_cell_length_a                   7.0145(4)
_cell_length_b                   7.0145(4)
_cell_length_c                   5.4826(3)
_cell_measurement_reflns_used    716
_cell_measurement_temperature    173
_cell_measurement_theta_max      29.9290
_cell_measurement_theta_min      3.3410
_cell_volume                     233.62(2)
_computing_cell_refinement       'CrysAlisPro 1.171.39.46e (Rigaku OD, 2018)'
_computing_data_collection       'CrysAlisPro 1.171.39.46e (Rigaku OD, 2018)'
_computing_data_reduction        'CrysAlisPro 1.171.39.46e (Rigaku OD, 2018)'
_computing_molecular_graphics    'Olex2 (Dolomanov et al., 2009)'
_computing_publication_material  'Olex2 (Dolomanov et al., 2009)'
_computing_structure_refinement  'ShelXL (Sheldrick, 2015)'
_computing_structure_solution    'ShelXT (Sheldrick, 2015)'
_diffrn_ambient_temperature      173
_diffrn_detector                 'Rigaku HyPix-3000 area detector'
_diffrn_detector_area_resol_mean 10.0
_diffrn_detector_type            'HPC area detector'
_diffrn_measured_fraction_theta_full 0.953
_diffrn_measured_fraction_theta_max 0.923
_diffrn_measurement_details
;
List of Runs (angles in degrees, time in seconds):

  # Type    Start    End  Width  t~exp~   \w     \q     \k     \f   Frames
--------------------------------------------------------------------------
  1  \w     -3.00  24.00   0.50   46.75    --   20.00  54.00  90.00   54
  2  \w     61.00 108.00   0.50   46.75    --   20.00  54.00  90.00   94
  3  \w    -73.00  -4.00   0.50   46.75    --   20.00  54.00 -90.00  138
  4  \w     12.00  70.00   0.50   46.75    --   20.00  54.00 -90.00  116
  5  \w    -73.00 -33.00   0.50   46.75    --   20.00  54.00  90.00   80
;
_diffrn_measurement_device       'fixed-chi diffractometer'
_diffrn_measurement_device_type  'Rigaku XtaLAB mini2'
_diffrn_measurement_method       '\w scans'
_diffrn_orient_matrix_type
'CrysAlisPro convention (1999,Acta A55,543-557)'
_diffrn_orient_matrix_UB_11      0.0787028000
_diffrn_orient_matrix_UB_12      0.0204382000
_diffrn_orient_matrix_UB_13      0.0923490000
_diffrn_orient_matrix_UB_21      0.0812399000
_diffrn_orient_matrix_UB_22      0.0900498000
_diffrn_orient_matrix_UB_23      -0.0682553000
_diffrn_orient_matrix_UB_31      -0.0294036000
_diffrn_orient_matrix_UB_32      0.0712465000
_diffrn_orient_matrix_UB_33      0.0598365000
_diffrn_radiation_monochromator  'curved graphite'
_diffrn_radiation_probe          x-ray
_diffrn_radiation_type           MoK\a
_diffrn_radiation_wavelength     0.71073
_diffrn_reflns_av_R_equivalents  0.0371
_diffrn_reflns_av_unetI/netI     0.0487
_diffrn_reflns_Laue_measured_fraction_full 0.953
_diffrn_reflns_Laue_measured_fraction_max 0.923
_diffrn_reflns_limit_h_max       5
_diffrn_reflns_limit_h_min       -9
_diffrn_reflns_limit_k_max       9
_diffrn_reflns_limit_k_min       -9
_diffrn_reflns_limit_l_max       7
_diffrn_reflns_limit_l_min       -7
_diffrn_reflns_number            947
_diffrn_reflns_point_group_measured_fraction_full 0.690
_diffrn_reflns_point_group_measured_fraction_max 0.612
_diffrn_reflns_theta_full        25.000
_diffrn_reflns_theta_max         30.265
_diffrn_reflns_theta_min         3.354
_diffrn_source                   'Sealed X-ray tube'
_diffrn_source_type              'Sealed X-ray tube'
_exptl_absorpt_coefficient_mu    0.142
_exptl_absorpt_correction_T_max  1.00000
_exptl_absorpt_correction_T_min  0.66734
_exptl_absorpt_correction_type   numerical
_exptl_absorpt_process_details
;
CrysAlisPro 1.171.39.46e (Rigaku Oxford Diffraction, 2018)
Empirical absorption correction using spherical harmonics,
 implemented in SCALE3 ABSPACK scaling algorithm.
;
_exptl_crystal_colour            'clear colourless'
_exptl_crystal_colour_lustre     clear
_exptl_crystal_colour_primary    colourless
_exptl_crystal_density_diffrn    1.601
_exptl_crystal_description       block
_exptl_crystal_F_000             120
_exptl_crystal_recrystallization_method
'Crystallization from H2O-EtOH with KOCOEt'
_exptl_crystal_size_max          0.317
_exptl_crystal_size_mid          0.194
_exptl_crystal_size_min          0.125
_refine_diff_density_max         0.508
_refine_diff_density_min         -0.488
_refine_diff_density_rms         0.126
_refine_ls_abs_structure_details
;
 Flack x determined using 117 quotients [(I+)-(I-)]/[(I+)+(I-)]
 (Parsons, Flack and Wagner, Acta Cryst. B69 (2013) 249-259).
;
_refine_ls_abs_structure_Flack   -3.2(10)
_refine_ls_extinction_method     none
_refine_ls_goodness_of_fit_ref   1.212
_refine_ls_hydrogen_treatment    constr
_refine_ls_matrix_type           full
_refine_ls_number_parameters     47
_refine_ls_number_reflns         575
_refine_ls_number_restraints     1
_refine_ls_restrained_S_all      1.210
_refine_ls_R_factor_all          0.0870
_refine_ls_R_factor_gt           0.0813
_refine_ls_shift/su_max          0.000
_refine_ls_shift/su_mean         0.000
_refine_ls_structure_factor_coef Fsqd
_refine_ls_weighting_details
'w=1/[\s^2^(Fo^2^)+(0.1134P)^2^+0.6654P] where P=(Fo^2^+2Fc^2^)/3'
_refine_ls_weighting_scheme      calc
_refine_ls_wR_factor_gt          0.2447
_refine_ls_wR_factor_ref         0.2475
_reflns_Friedel_coverage         0.325
_reflns_Friedel_fraction_full    0.427
_reflns_Friedel_fraction_max     0.300
_reflns_number_gt                523
_reflns_number_total             575
_reflns_threshold_expression     'I > 2\s(I)'
_iucr_refine_instructions_details
;
TITL exp_40_a.res in P3(2)
    exp_40.res
    created by SHELXL-2018/3 at 09:11:49 on 15-May-2019
REM Old TITL exp_40_a.res in P3(2)
REM SHELXT solution in P3(2): R1 0.129, Rweak 0.069, Alpha 0.019
REM <I/s> 0.346 for 3 systematic absences, Orientation as input
REM Flack x = -6.135 ( 2.571 ) from 111 Parsons' quotients
REM Formula found by SHELXT: C2 N O2
CELL 0.71073 7.0145 7.0145 5.4826 90 90 120
ZERR 3 0.0004 0.0004 0.0003 0 0 0
LATT -1
SYMM -Y,+X-Y,0.667+Z
SYMM +Y-X,-X,0.333+Z
SFAC C H N O
UNIT 6 15 3 6

L.S. 20
PLAN  20
SIZE 0.125 0.194 0.317
TEMP -100.15
BOND
list 4
fmap 2
acta 50
REM <olex2.extras>
REM <HklSrc "%.\\exp_40.hkl">
REM </olex2.extras>

WGHT    0.113400    0.665400
FVAR       2.50941
O001  4    0.324853    0.435707    0.727356    11.00000    0.02886    0.01204 =
         0.01600   -0.00139    0.00366    0.01414
O002  4    0.334353    0.123421    0.756585    11.00000    0.04018    0.01751 =
         0.01897   -0.00382   -0.00640    0.01900
N003  3    0.306464    0.424177    0.239269    11.00000    0.02249    0.01234 =
         0.01140    0.00272    0.00675    0.01040
AFIX 137
H00A  2    0.306051    0.407551    0.074625    11.00000   -1.20000
H00B  2    0.409596    0.564204    0.280286    11.00000   -1.20000
H00C  2    0.171413    0.397283    0.288827    11.00000   -1.20000
AFIX   0
C004  1    0.334175    0.273073    0.636039    11.00000    0.01274    0.01272 =
         0.01078   -0.00019    0.00173    0.00296
C005  1    0.358240    0.269627    0.357888    11.00000    0.03566    0.01889 =
         0.01471   -0.00219    0.00070    0.02084
AFIX  23
H00D  2    0.510993    0.308530    0.317124    11.00000   -1.20000
H00E  2    0.258193    0.119241    0.296000    11.00000   -1.20000
AFIX   0
HKLF 4




REM  exp_40_a.res in P3(2)
REM wR2 = 0.2475, GooF = S = 1.212, Restrained GooF = 1.210 for all data
REM R1 = 0.0813 for 523 Fo > 4sig(Fo) and 0.0870 for all 575 data
REM 47 parameters refined using 1 restraints

END  
     
WGHT      0.1134      0.6654 

REM Highest difference peak  0.508,  deepest hole -0.488,  1-sigma level  0.126
Q1    1   0.4361  0.2148  0.6409  11.00000  0.05    0.50
Q2    1   0.3155  0.2487  0.1632  11.00000  0.05    0.46
Q3    1   0.3346  0.6174  0.3815  11.00000  0.05    0.39
Q4    1   0.2439  0.0056  0.8776  11.00000  0.05    0.37
Q5    1   0.1764  0.0190  0.0930  11.00000  0.05    0.34
Q6    1   0.0152  0.3680  0.2592  11.00000  0.05    0.32
Q7    1   0.3437  0.2646  0.4958  11.00000  0.05    0.32
Q8    1   0.3383  0.2731  0.8992  11.00000  0.05    0.31
Q9    1   0.5616  0.2562  0.7174  11.00000  0.05    0.31
Q10   1   0.1198 -0.0216  0.3941  11.00000  0.05    0.30
Q11   1   0.2861  0.2942 -0.0308  11.00000  0.05    0.30
Q12   1   0.2899 -0.0454  0.2884  11.00000  0.05    0.29
Q13   1   0.3654  0.4641  0.8725  11.00000  0.05    0.29
Q14   1   0.1448  0.1519  0.1000  11.00000  0.05    0.29
Q15   1   0.5070  0.0859  0.3740  11.00000  0.05    0.28
Q16   1   0.2057  0.1240  0.4356  11.00000  0.05    0.27
Q17   1   0.1369  0.3158 -0.0159  11.00000  0.05    0.27
Q18   1   0.1969 -0.0401  0.2578  11.00000  0.05    0.27
Q19   1   0.1265  0.4542  0.1653  11.00000  0.05    0.26
Q20   1   0.3784  0.4558  0.6061  11.00000  0.05    0.25

  REM The information below was added by Olex2.
  REM
  REM R1 = 0.0813 for 523 Fo > 4sig(Fo) and 0.0870 for all 953 data
  REM n/a parameters refined using n/a restraints
  REM Highest difference peak 0.51, deepest hole -0.49
  REM Mean Shift 0, Max Shift 0.000.

  REM +++ Tabular Listing of Refinement Information +++
  REM R1_all = 0.0870
  REM R1_gt = 0.0813
  REM wR_ref = 0.2475
  REM GOOF = 1.212
  REM Shift_max = 0.000
  REM Shift_mean = 0
  REM Reflections_all = 953
  REM Reflections_gt = 523
  REM Parameters = n/a
  REM Hole = -0.49
  REM Peak = 0.51
  REM Flack = -3.2(10)

  
;
_cod_data_source_file            jo9b02726_si_002.cif
_cod_data_source_block           CCDC1916164
_cod_original_cell_volume        233.62(3)
_cod_database_code               4037663
_shelx_shelxl_version_number     2018/3
_chemical_oxdiff_formula         'C5 H11 N1 O4 K'
_shelx_space_group_comment
;
The symmetry employed for this shelxl refinement is uniquely defined
by the following loop, which should always be used as a source of
symmetry information in preference to the above space-group names.
They are only intended as comments.
;
_shelx_estimated_absorpt_t_max   0.982
_shelx_estimated_absorpt_t_min   0.956
_reflns_odcompleteness_completeness 99.56
_reflns_odcompleteness_iscentric 1
_reflns_odcompleteness_theta     27.42
_olex2_refinement_description
;
1. Fixed Uiso
 At 1.2 times of:
  All C(H,H) groups, All N(H,H,H) groups
2.a Secondary CH2 refined with riding coordinates:
 C005(H00D,H00E)
2.b Idealised Me refined as rotating group:
 N003(H00A,H00B,H00C)
;
_olex2_submission_special_instructions 'No special instructions were received'
_oxdiff_exptl_absorpt_empirical_details
;
Empirical correction (ABSPACK) includes:
- Absorption correction using spherical harmonics
- Frame scaling
;
_oxdiff_exptl_absorpt_empirical_full_max 1.335
_oxdiff_exptl_absorpt_empirical_full_min 0.744
loop_
_space_group_symop_operation_xyz
'x, y, z'
'-y, x-y, z+2/3'
'-x+y, -x, z+1/3'
loop_
_atom_site_label
_atom_site_type_symbol
_atom_site_fract_x
_atom_site_fract_y
_atom_site_fract_z
_atom_site_U_iso_or_equiv
_atom_site_adp_type
_atom_site_occupancy
_atom_site_site_symmetry_order
_atom_site_calc_flag
_atom_site_refinement_flags_posn
O001 O 0.3249(8) 0.4357(8) 0.7274(11) 0.0172(11) Uani 1 1 d .
O002 O 0.3344(10) 0.1234(9) 0.7566(9) 0.0235(13) Uani 1 1 d .
N003 N 0.3065(10) 0.4242(9) 0.2393(12) 0.0147(11) Uani 1 1 d .
H00A H 0.306051 0.407551 0.074625 0.018 Uiso 1 1 calc GR
H00B H 0.409596 0.564204 0.280286 0.018 Uiso 1 1 calc GR
H00C H 0.171413 0.397283 0.288827 0.018 Uiso 1 1 calc GR
C004 C 0.3342(11) 0.2731(11) 0.6360(13) 0.0136(13) Uani 1 1 d .
C005 C 0.3582(14) 0.2696(12) 0.3579(13) 0.0199(16) Uani 1 1 d .
H00D H 0.510993 0.308530 0.317124 0.024 Uiso 1 1 calc R
H00E H 0.258193 0.119241 0.296000 0.024 Uiso 1 1 calc R
loop_
_atom_site_aniso_label
_atom_site_aniso_U_11
_atom_site_aniso_U_22
_atom_site_aniso_U_33
_atom_site_aniso_U_23
_atom_site_aniso_U_13
_atom_site_aniso_U_12
O001 0.029(3) 0.012(2) 0.016(2) -0.0014(19) 0.004(2) 0.014(2)
O002 0.040(3) 0.018(3) 0.019(3) -0.004(2) -0.006(2) 0.019(3)
N003 0.022(3) 0.012(3) 0.011(2) 0.003(2) 0.007(2) 0.010(3)
C004 0.013(3) 0.013(3) 0.011(3) 0.000(2) 0.002(2) 0.003(3)
C005 0.036(4) 0.019(4) 0.015(3) -0.002(3) 0.001(3) 0.021(3)
loop_
_atom_type_symbol
_atom_type_description
_atom_type_scat_dispersion_real
_atom_type_scat_dispersion_imag
_atom_type_scat_source
C C 0.0033 0.0016 'International Tables Vol C Tables 4.2.6.8 and 6.1.1.4'
H H 0.0000 0.0000 'International Tables Vol C Tables 4.2.6.8 and 6.1.1.4'
N N 0.0061 0.0033 'International Tables Vol C Tables 4.2.6.8 and 6.1.1.4'
O O 0.0106 0.0060 'International Tables Vol C Tables 4.2.6.8 and 6.1.1.4'
loop_
_geom_angle_atom_site_label_1
_geom_angle_atom_site_label_2
_geom_angle_atom_site_label_3
_geom_angle
O001 C004 C005 117.3(6)
O002 C004 O001 124.7(7)
O002 C004 C005 118.0(6)
N003 C005 C004 111.2(6)
loop_
_geom_bond_atom_site_label_1
_geom_bond_atom_site_label_2
_geom_bond_distance
O001 C004 1.277(8)
O002 C004 1.241(9)
N003 C005 1.457(9)
C004 C005 1.536(9)
loop_
_refln_index_h
_refln_index_k
_refln_index_l
_refln_F_squared_meas
_refln_F_squared_sigma
0 0 2 0.83 3.52
0 0 2 0.05 4.2
0 0 -2 1.75 3.05
0 0 -3 2980.79 35.34
0 0 3 2654.92 42.65
0 0 4 2.02 5.49
0 0 5 0.87 5.8
0 0 6 340.96 19.91
0 0 7 2.59 8.43
0 -1 7 157.08 16.69
1 0 7 149.51 16
-1 1 6 81.6 11.14
1 0 6 83.79 12
0 -1 6 86.46 11.31
-1 1 5 180.11 13.07
1 0 5 207.68 16.37
0 -1 5 200.5 15.23
0 -1 4 323.28 16.59
-1 1 4 337.76 16.49
1 0 4 319.54 17.01
1 -1 -3 42.09 5.01
0 -1 3 44.27 6.85
-1 1 3 41.49 6.1
1 0 3 51.29 6.55
0 -1 2 159.28 8.53
-1 1 2 198.62 8.83
-1 0 -2 169.07 8.88
1 0 2 181.78 8.71
1 -1 -2 152.34 7.1
1 0 1 2238.94 26.29
0 -1 1 2018.42 25.79
-1 0 -1 2130.18 25.67
-1 1 1 2015.08 23.8
1 -1 -1 2062.38 24.69
-1 0 -1 2077.29 25.95
0 -1 0 174.3 5.91
-1 0 0 181.86 6.43
0 1 0 180.38 6.4
1 0 0 148.57 5.2
0 1 0 169.3 6.14
1 0 -1 1464.18 17.05
0 1 1 1282.26 19.94
0 -1 -1 1267.45 19.67
-1 0 1 1554.18 18.99
1 -1 1 1236.92 18.61
0 1 1 1352.98 21.21
-1 1 -1 1415.81 19.92
1 -1 1 1362.98 17.86
-1 0 1 1407.45 15.52
0 -1 -1 1360.4 21.35
-1 1 -1 1238.63 16.94
1 0 -2 8974.2 75.21
0 -1 -2 8848.45 78.72
1 -1 2 8841.77 69.16
1 -1 2 9146.21 82.84
0 -1 -2 9104.84 78.39
-1 1 -2 8721.17 69.79
-1 0 2 9016.43 63.27
1 -1 3 103.85 9.3
0 -1 -3 110.77 8.48
-1 0 3 88.51 7.61
-1 0 4 113.24 9.68
0 -1 -4 136 9.32
1 -1 4 122.6 11.19
0 1 5 22.77 7.57
-1 0 5 21.23 7.71
1 -1 5 22.1 7.8
1 -1 6 38.33 9.35
0 1 6 48.14 10.22
-1 0 6 43.62 9.58
1 -1 7 96.36 14.19
0 1 7 82.8 12.69
-1 2 0 9780 75.93
-1 2 0 9923.6 76.97
-1 -1 0 9659.67 76.71
-1 2 -1 463.41 12.63
-1 -1 1 802.96 15.18
2 -1 -1 484.9 8.92
2 -1 -1 483.3 8.36
2 -1 1 851.75 16.1
-1 2 -1 515.71 11.9
-1 2 1 808.16 14.13
-1 -1 -2 1806.31 29.98
-1 2 -2 1444.18 17.13
-1 -1 2 547.55 19.54
-1 2 -2 1742.81 27.44
-1 2 2 553.64 18.63
2 -1 2 559.87 17.52
-1 -1 3 468.12 18.41
2 -1 3 449.2 18.35
2 -1 4 460.72 21.35
-1 -1 -4 493.36 19.64
-1 -1 4 482.18 21.12
-1 -1 5 85.97 11.68
-1 2 5 79.92 10.41
2 -1 5 93.35 12.31
2 -1 6 33.12 9.85
-1 -1 6 40.4 10.95
2 -1 7 75.09 12.25
-1 -1 7 94.04 14.21
1 -2 0 9729.58 73.85
1 1 0 9999 76.17
-2 1 0 9713.79 80.42
-2 1 0 9925.32 65.88
1 1 1 445.08 13.71
-2 1 -1 877.46 17.9
1 -2 1 513.73 15.28
1 1 -1 860.67 11.11
1 -2 -1 919.93 18.94
1 1 -1 815.6 16.22
1 1 1 487.01 15.48
1 -2 -2 522.53 16.47
1 1 2 1751.75 28.09
1 -2 2 1728.29 30.21
-2 1 2 1367.03 18.93
1 -2 -2 490.64 17.61
-2 1 2 1722.22 23.01
-2 1 -2 463.37 15.98
-2 1 3 960.42 20
1 -2 -3 423.7 16.5
-2 1 -3 448.2 16.03
1 -2 3 1020.33 25.07
1 -2 4 434.58 19.84
-2 1 4 390.26 15.34
1 -2 -4 455.1 18.1
1 -2 5 118.79 12.4
1 1 6 95.32 13.26
1 -2 6 103.05 13.71
1 1 7 137.02 16.17
1 -2 7 141.16 16.94
2 0 7 42.75 11.53
0 -2 7 48.72 12.55
2 0 6 18.89 10.53
0 -2 6 19.63 10.2
2 0 5 35.31 9.78
0 -2 5 41.39 10.26
0 -2 4 1499.8 38.78
-2 2 4 1389.68 31.47
2 -2 -3 498.78 16.53
0 -2 3 514.43 20.08
-2 2 3 451.22 14.65
0 -2 2 765.26 23.52
-2 0 -2 716.16 20.55
-2 2 2 697.2 18.42
2 0 2 662.04 18.73
0 2 -2 709.61 9.55
2 -2 -2 719.26 15.79
-2 0 -2 617.25 18.79
-2 0 -1 748 19.2
0 2 -1 667.41 17.74
-2 2 1 787.84 18.42
0 2 -1 791.35 13.72
0 2 -1 841.71 19.64
0 -2 1 743.28 13.6
-2 0 -1 659.81 14.98
2 0 1 774.05 17.99
2 0 0 2417.51 30.05
-2 0 0 2139.44 29.23
-2 2 0 2218.23 21.87
0 -2 0 2408.11 31.33
0 2 0 2470.36 30.53
-2 2 0 2282.52 22.68
2 -2 1 732.72 16.02
-2 2 -1 771.21 17.97
-2 0 1 880.28 15.92
0 -2 -1 783.37 19.97
0 2 1 765.69 19.64
-2 2 -1 772.17 15.71
0 2 1 809.15 19.78
2 0 -1 982.11 17.42
2 0 -1 944.76 16.09
-2 0 1 822.78 14.22
0 -2 -2 4501.28 56.59
2 -2 2 3982.5 49.63
-2 2 -2 4164.02 47.16
-2 0 2 4063.85 38.32
2 0 -2 4444.48 44.46
0 2 2 3944.43 51.51
0 -2 -2 3939.52 51.53
0 -2 -3 560.65 19.56
2 -2 3 548.82 19.55
-2 2 -3 570.27 15.81
-2 0 4 98.4 10.31
2 -2 4 91.61 10.54
0 -2 -4 89.85 9.66
-2 0 5 88.26 11.2
2 -2 5 72.66 10.07
0 2 6 70.59 11.68
2 -2 6 78.95 12.44
0 2 7 70.06 13.35
2 -2 7 65.34 12.37
-1 -2 7 195.09 20.88
3 -1 7 157.31 17.71
-1 -2 6 515.66 28.44
3 -1 6 462.32 26.22
3 -1 5 88.17 13.07
-1 -2 5 97.23 13.9
-1 -2 4 426.37 23.19
3 -1 4 391.29 20.6
-1 3 -2 240.18 13.27
-2 3 1 368.23 12.31
-1 -2 1 397.31 15.27
-2 -1 -1 1174.6 26.35
-1 -2 1 406.31 13.39
-1 3 -1 1025.96 17.22
-1 3 -1 1033.6 22.82
-1 3 -1 1095.6 21.56
3 -1 0 3646.31 36.9
-1 3 0 3904.96 43.52
3 -2 0 3727.85 30.18
-1 -2 0 3511.58 46.53
-1 -2 0 3444.23 45.12
3 -1 0 3649.46 44.81
-2 3 0 3316.88 44.55
-2 -1 0 4040 43.3
-2 -1 0 4129.17 46.55
-1 3 0 3979.54 46.37
-2 3 0 3410.82 39.46
-2 3 -1 665.51 16.59
-2 3 -1 521.94 14.04
-2 3 -1 467.7 14.11
-1 -2 -1 575.36 19.71
-1 3 1 387.64 16.24
-2 -1 1 400.35 12.84
3 -1 -1 525.36 10.02
3 -2 1 420.1 13.06
-2 -1 1 464.77 13.82
3 -1 -2 275.75 9.63
-2 3 -2 254.93 10.65
-1 3 2 90.84 8.84
3 -2 2 103.19 8.83
-1 -2 -2 279.71 14.96
-1 -2 -3 53.52 9.2
3 -2 3 213 14.08
3 -2 4 376.37 18.92
-1 -2 -4 471.75 21.32
-2 -1 5 200.28 16.85
3 -2 5 165.71 14.7
3 -2 6 431.68 24.33
3 -2 7 136.94 16.74
-2 4 0 48.12 6.15
-2 4 -1 584.59 16.52
-2 4 -1 501.21 16.11
-2 4 -2 444.91 18.07
-2 4 2 201.39 12.03
-2 -2 -3 237.44 17.36
4 -2 3 147.31 12.28
-2 -2 -4 433.34 22.66
4 -2 4 974.57 32.74
4 -2 5 87.05 13.3
-2 -2 -5 22.54 10.03
4 -2 6 173.37 17.2
2 1 7 39.9 13.33
1 -3 7 42.6 12.38
2 1 6 550.76 28.38
1 -3 6 587.5 29.66
1 -3 5 97.97 13.28
2 -3 -4 370.45 17.75
-3 1 -4 381.84 18.41
1 -3 4 329.21 19.22
2 -3 -3 463.77 18.66
1 2 -3 454.07 19.01
-3 1 -3 455.89 18.07
2 -3 -2 426 17.04
1 2 -2 383.32 16.12
-3 2 2 252.76 12.04
-3 2 2 225.87 7.43
-3 1 -2 394.17 16.36
2 -3 -1 367.45 15.77
2 1 1 1233.7 27.58
-3 1 -1 392.27 16.99
1 2 -1 415.3 17.09
1 2 -1 348.7 10.85
2 -3 -1 400.19 11.41
-3 1 -1 416.61 13.44
2 1 1 1096.95 22.31
2 1 0 3850.08 41.74
1 -3 0 3770.31 41.02
-3 2 0 4019.2 31.42
1 -3 0 3818.31 45.51
2 -3 0 3194.77 36.93
-3 2 0 4449.76 52.93
1 2 0 3473.94 41.93
-3 1 0 3645.55 48.96
1 -3 -1 427.84 17.01
2 1 -1 478.68 16.92
-3 2 -1 335.75 12.96
2 1 -1 435.94 12.1
1 2 1 559.32 17.15
1 2 1 486.23 18.97
-3 1 1 495.48 14.77
2 1 -2 94.66 8.19
1 -3 -2 99.25 9.7
-3 2 -2 99.82 9.53
-3 1 2 298.72 12.27
1 2 2 262.49 14.92
2 -3 2 301.54 14.66
2 1 -2 114.23 8.7
2 1 -3 225.01 13.5
1 -3 -3 201.19 13.21
-3 1 3 57.73 6.89
-3 2 -3 203.57 12.59
2 -3 3 62.03 9.13
2 1 -4 386.12 18.95
1 -3 -4 397.2 19.97
2 -3 5 88.44 12.31
2 -3 6 297.77 21.85
1 2 7 65.09 13.43
2 -3 7 80.39 15.69
3 0 7 142.81 18.51
0 -3 7 173.94 20.66
3 0 6 38.03 11.67
0 -3 6 39.18 12.36
0 -3 5 118.57 16.2
0 3 -4 318.71 19.11
0 3 -3 54 8.76
-3 0 -3 54.26 10.09
0 3 -2 3654.82 54.76
-3 0 -2 3661.22 54.14
0 -3 1 211.93 10.38
-3 3 1 151.11 4.94
0 3 -1 168.13 11.09
0 3 -1 194.17 9.03
3 0 1 201.81 11.8
-3 0 -1 183.01 12.77
-3 0 0 288.93 13.02
0 -3 0 255.79 10.77
0 -3 0 281.57 12.72
3 0 0 381.45 14.62
-3 3 0 275.62 7.55
0 3 0 315.83 13.35
3 0 0 374.71 15.01
-3 3 0 225.42 6.54
3 0 -1 1485.09 24.3
-3 0 1 1448.9 22.12
-3 3 -1 1325.45 28.6
0 -3 -1 1206.88 28.45
-3 0 1 1530.21 27.62
-3 3 -1 1341.43 23.1
3 -3 1 1319.26 24.44
3 -3 2 162 10.14
-3 3 -2 145.51 9.01
3 0 -2 201.18 9.54
0 -3 -2 156.31 11.51
0 3 2 175.11 12.98
-3 3 -3 231.93 13.04
0 -3 -3 197.71 14.08
3 -3 3 216.14 13.8
0 -3 -4 1973.1 42.01
3 -3 4 2231.61 47.28
3 -3 5 13.64 9.02
3 -3 6 27.13 9.63
3 -3 7 73.17 14.47
-1 4 -6 116.13 16.2
4 -1 6 233.76 21.02
-1 4 -5 28.88 10.19
-3 -1 -5 24.15 10.6
-1 4 -4 1031.37 34.93
-1 4 -3 555.86 23.88
-1 4 -2 128.25 11.15
-1 4 -1 320.59 15.28
-3 -1 -1 314.54 16.08
-1 4 -1 316.33 12.32
-3 4 0 333.25 12.04
4 -1 0 399.57 13.47
-1 -3 0 350.22 16.22
4 -3 1 56.25 5.7
-3 4 -1 134.52 7.88
-1 -3 -1 174.96 13.2
-3 4 -1 150.14 9.52
-3 -1 1 69.96 8.03
-3 4 -2 2177.96 39.56
4 -3 2 2418.78 38.73
-1 4 2 2500.52 45.18
-1 -3 -2 2197.93 46.87
4 -3 3 261.65 14.92
-1 -3 -3 695.78 26.83
4 -3 4 140.22 13.12
-1 -3 -4 145.66 14.89
4 -3 5 66.05 10.55
-1 -3 -5 78.05 11.83
4 -3 6 81.14 13.7
-2 5 -6 128.51 16.51
5 -2 6 96.66 14.89
-2 5 -5 26.66 9.72
-3 -2 -5 30.32 11.49
-2 5 -4 364.54 21.72
-3 -2 -4 405.49 24.37
-2 5 -3 73.19 11.77
-2 5 -2 141.77 12.09
-2 5 -1 63.64 8.64
-2 -3 0 387.67 18.52
-2 -3 -1 696.99 25.66
-3 5 -1 559.95 17.67
-3 5 -2 626.69 23.96
-2 -3 -2 634.08 26.9
-2 5 2 627.97 23.06
-3 5 -3 101.59 11.35
-2 -3 -3 124.39 14.64
5 -3 4 237.67 16.59
-2 -3 -4 184.33 17.57
5 -3 5 48.45 11.09
-2 -3 -5 9.59 10.48
5 -3 6 160.76 16.39
-3 6 -1 159.46 13.68
-3 6 -2 34.84 7.51
-3 -3 -2 41.77 11.76
-3 6 -3 299.59 19.07
-3 -3 -3 304.49 21.44
-3 -3 -4 46.7 12.93
-3 6 -4 45.38 12.15
-3 6 -5 11.85 10.19
-3 -3 -5 16.82 11.87
-3 6 -6 472.56 29.6
2 -4 0 44.12 5.8
2 2 0 50.56 7.69
-4 2 0 40.63 7.13
2 2 -1 170.26 8.48
-4 2 1 548.32 18.6
-4 2 -1 166.16 12.51
2 -4 -1 174.59 11.92
2 2 1 640.66 22.89
2 2 -1 199.54 12.98
-4 2 -2 248.54 15.7
2 2 -2 252.74 14.73
2 -4 -2 217.41 14.48
-4 2 2 487.26 17.71
2 2 2 482.01 21.51
2 2 -3 147.69 12.59
2 -4 -3 116.44 10.84
-4 2 -3 142.84 12.83
2 2 -4 948.24 31.53
-4 2 -4 865.06 27.45
2 2 -5 88.89 13.98
2 -4 5 23.54 9.54
2 -4 6 54.39 12.42
2 2 7 55.21 13.4
1 3 -7 41.59 12.74
1 3 -6 233.01 20.11
1 3 -5 98.96 13.78
1 3 -4 1079.73 36.26
-4 1 -4 954.63 30.78
1 3 -3 195.61 14.73
-4 1 -3 192.93 15.41
1 3 -2 248.64 14.15
-4 1 -2 282.89 16.01
-4 1 -1 609.33 21.14
1 3 -1 729.21 25.1
1 -4 1 356.52 14.61
3 1 1 405.04 18.92
1 -4 0 634.42 18.76
-4 3 0 674.2 22.54
3 1 -1 72.18 7.57
1 -4 -1 67.84 9.58
-4 3 -1 56.5 7.95
-4 3 -2 2558.78 45.81
-4 1 2 2324.03 38.17
1 -4 -2 2720.21 52.62
1 3 2 2024.46 44.38
3 -4 2 2161.65 41.23
-4 3 -3 279.47 16.09
1 -4 -3 259.56 17.01
1 -4 -4 163.17 15.5
3 -4 4 166.59 15.66
1 -4 -5 61.57 11.03
3 -4 5 94.23 13.95
3 -4 6 28.64 11.81
0 4 -6 441.5 27.01
4 0 6 419.54 26.88
0 4 -5 25.53 11.49
0 4 -4 65.08 11.92
0 4 -3 275.24 17.93
-4 0 -3 279.4 18.63
0 4 -2 102.61 10.37
-4 0 -2 115.18 12.75
4 0 1 421.49 18.24
0 -4 1 430.8 16.49
0 4 -1 411.15 20.35
-4 0 -1 414.15 20.26
0 -4 0 1908.94 36.32
4 0 0 1905.22 32.56
-4 0 0 1893.06 37.36
-4 0 1 456.58 16.83
-4 4 -1 482.59 20.12
0 -4 -1 447.17 18.89
0 -4 -2 147.23 12.75
-4 4 -2 153.92 11.36
4 -4 2 184.42 12.39
0 4 2 178.13 14.85
4 -4 3 97.83 10.87
-4 4 -3 96.31 10.38
0 4 3 87.63 12.31
0 -4 -3 83.74 11.06
0 -4 -4 187.68 15.25
4 -4 4 216.37 16.31
0 -4 -5 11.15 7.51
4 -4 5 23.02 9.86
4 -4 6 302.51 23.24
-1 5 -6 82.33 16.36
5 -1 6 43.68 13.2
-1 5 -5 8.34 10.11
-1 5 -4 209.59 17.85
-1 5 -3 86.82 11.78
-1 5 -2 251.87 16.09
-4 -1 -2 264.05 18.84
-1 5 -1 548.85 23.77
-4 -1 -1 500.91 22.82
-1 -4 0 288.84 15.73
-4 -1 0 73.83 10.55
-1 -4 -1 39.46 9.59
-4 -1 1 86.5 10.4
-1 5 2 157.79 14.02
-4 5 -2 116.15 9.94
-4 5 -2 137.27 12.44
-1 -4 -2 134.26 14.57
-1 5 3 30.01 9.42
-1 -4 -3 6.58 8.37
-1 -4 -4 170.23 16.2
5 -4 5 70.39 12.34
-1 -4 -5 25.24 9.67
5 -4 6 103.23 14.48
-2 6 -5 47.72 12.44
-4 -2 -5 42.66 13.36
-2 6 -4 10.86 9.45
-2 6 -3 205.72 16.02
-2 6 -2 397.24 21.66
-2 6 -1 257.68 17.48
-2 -4 0 388.55 22.34
-2 -4 -1 195.2 16.55
-2 -4 -2 108.61 14.54
-4 6 -3 171.96 16.23
-2 -4 -3 185.61 18.99
-4 6 -4 716.11 29.61
-2 -4 -4 826.74 35.7
-4 6 -5 53.75 12.49
-2 -4 -5 41.21 12.14
-4 6 -6 12.55 11.34
-3 7 -5 76.09 14.83
-4 -3 -5 73.17 16.22
-3 7 -4 365.4 23.19
-4 -3 -4 386.14 26.64
-3 7 -3 16.88 8.49
-4 -3 -3 18.61 12.82
-3 7 -2 124.79 15.11
-3 -4 -1 91.93 14.68
-3 -4 -2 456.44 27.29
-3 -4 -3 11.88 11.23
-4 7 -4 143.95 15.9
-3 -4 -4 160.56 20.92
-4 7 -5 22.05 11.43
-3 -4 -5 17.57 13.22
-4 -4 -1 23.07 11.21
-4 -4 -2 297.9 24.33
-4 -4 -3 85.9 16.36
-4 -4 -4 34.71 14.67
2 3 -5 98.17 13.79
2 3 -4 562.02 24.2
3 -5 -4 569.6 25.54
-5 2 -4 620.79 26.48
2 3 -3 83.29 11.13
3 -5 -3 97.67 12.36
-5 2 -3 100.06 13.75
-5 2 -2 132.78 12.99
2 3 -2 180.8 16.01
3 -5 -2 163.68 14.47
-5 3 2 149.29 12.69
3 2 2 162.9 15.72
3 2 1 60.69 9.45
-5 3 1 64.8 9.5
-5 2 0 367.52 19.16
2 -5 0 348.78 18.64
-5 3 -1 310.79 19.78
-5 2 1 674.16 23.18
2 -5 -1 267.34 17.16
2 3 1 756.06 30.38
3 2 -2 737.04 26.82
-5 3 -2 652.72 26.43
2 -5 -2 559.61 23.04
-5 2 2 539.6 19.54
2 3 2 642.74 27.1
3 2 -3 56.19 10.42
-5 3 -3 44.51 10.04
2 -5 -3 33.13 7.47
3 2 -4 228.81 15.57
2 -5 -4 206.3 15.32
3 -5 4 210.66 19.45
2 -5 -5 50.7 11.22
3 -5 5 24.62 12.18
3 -5 6 50.47 15
1 4 -6 54.71 12.93
1 4 -5 8.35 9.57
1 4 -4 179.33 15.41
-5 1 -4 203.58 18.09
1 4 -3 54.24 9.69
-5 1 -3 61.26 12.13
1 4 -2 153.76 15.16
-5 1 -2 156.52 15.54
1 -5 1 536.16 19.54
4 1 1 566.1 23.73
1 -5 0 64.87 8.09
-5 4 0 72.32 11.15
4 1 0 95.85 12.83
-5 4 -1 83.73 10.64
1 -5 -1 81.1 10.45
-5 4 -2 167.37 14.36
1 -5 -2 172.33 15.89
1 4 2 137.48 15.7
1 4 3 5.46 9.65
-5 4 -3 38.72 10.23
1 -5 -3 36.16 10.93
4 -5 3 9.97 8.44
1 -5 -4 221.77 19.15
4 -5 4 197.97 16.47
1 -5 -5 56.46 11.16
4 -5 5 35.68 11.17
4 -5 6 357.92 24.96
0 5 -6 34.58 12.24
0 5 -5 79 13.79
0 5 -4 72.67 11.68
0 5 -3 257.39 17.95
-5 0 -3 265.23 20.37
0 5 -2 99.33 13.48
-5 0 -2 87.41 14.47
-5 0 -1 6.76 9.92
0 -5 0 2015.74 44.28
-5 0 0 2022.62 45.98
-5 5 -1 157.88 14.83
0 -5 -1 140.97 13.02
-5 0 1 163.46 13.2
0 5 2 133.66 13.7
-5 5 -2 150.79 12.94
0 -5 -2 142.36 13.81
0 5 3 258.18 19.26
0 -5 -3 261.97 18.17
0 -5 -4 259.99 18.43
0 -5 -5 24.01 10.95
5 -5 6 38.01 13.59
-1 6 -5 5.17 9.12
-1 6 -4 39.6 10.32
-1 6 -3 47.43 10.66
-1 6 -2 821.79 34.35
-5 -1 -1 93.36 14.35
-1 -5 0 90.72 11.2
-5 -1 0 125.57 13.92
-1 -5 -1 273.61 18.55
-5 6 -2 190.24 15.56
-1 -5 -2 174.14 16.28
-1 6 3 29.72 11.25
-1 -5 -3 88.83 13.29
-1 -5 -4 51.58 11.93
-1 -5 -5 30.93 11.14
-2 7 -5 24.18 10.67
-5 -2 -5 33 14
-2 7 -4 16.63 9.87
-2 7 -3 60.77 12.67
-2 7 -2 33.28 11.5
-2 -5 -1 56.4 11.96
-2 -5 -2 109.97 15.66
-2 -5 -3 75.29 14.19
-2 -5 -4 28.45 12.26
-2 -5 -5 34.66 12.49
-3 8 -4 199.74 20.24
-5 -3 -4 222.64 23.25
-3 8 -3 106.12 16.19
-5 -3 -3 113.98 19.29
-3 -5 -1 36.07 12.87
-3 -5 -2 52.65 14.65
-3 -5 -3 41.8 14.84
-3 -5 -4 191.45 21.28
-5 -4 -3 12.83 14.19
-5 -4 -2 23.82 13.22
-4 -5 -2 12.74 14.13
-4 -5 -3 77.87 17.71
-6 3 0 1331.35 41.32
-6 3 1 126.25 11.89
3 3 1 131.4 15
-6 3 -2 90.94 13.88
3 -6 -2 102.2 13.87
-6 3 2 34.34 8.63
3 3 2 46.58 13.18
3 -6 -3 146.54 15.92
3 3 -3 176.72 17.83
-6 3 -3 148.37 15.41
3 3 -4 104.19 14.21
3 -6 -4 93.9 13.84
-6 3 -4 100.21 15.78
3 -6 -5 33.71 10.73
2 4 -5 44.08 10.99
2 4 -4 10.03 9.54
-6 2 -4 7.03 10.67
2 4 -3 170 18.42
-6 2 -3 127.1 16.58
2 4 -2 962.58 35.28
-6 4 2 422.51 22.94
4 2 2 420.74 24.94
-6 2 -2 922.24 34.66
4 2 1 291.86 20.28
-6 4 1 244.7 17.34
-6 4 0 996.44 31.89
2 -6 0 1174 34.38
-6 2 1 180.03 14.67
-6 4 -1 94.14 13
2 -6 -1 104.78 13.34
2 4 1 212.32 20.74
-6 4 -2 72.53 12.23
2 -6 -2 86.29 12.83
2 4 2 109.96 16.42
-6 4 -3 176.42 17.39
2 4 3 158.28 18.2
2 -6 -3 142.21 14.48
2 -6 -4 287.9 20.21
2 -6 -5 23.36 11.15
1 5 -5 5.43 9.06
1 5 -4 200.96 19.32
-6 1 -4 193.2 19.82
1 5 -3 40.77 12.26
-6 1 -3 48.05 13.9
1 5 -2 443.94 25.78
-6 1 -2 420.22 25.5
5 1 1 105.07 14.79
-6 1 -1 127.42 14.63
1 -6 0 119.27 11.98
-6 5 0 129.04 15.61
-6 1 0 101.02 14.06
-6 5 -1 200.29 16.63
1 -6 -1 185.34 15.36
-6 5 -2 52.96 11.79
1 -6 -2 40.95 11.08
-6 5 -3 34.7 10.93
1 -6 -3 29.23 10.91
1 -6 -4 63.97 12.47
1 -6 -5 24.6 10.26
0 6 -5 7.57 9.41
0 6 -4 113.38 15.78
0 6 -3 122.92 16.94
-6 0 -3 105.46 16.84
0 6 -2 36.19 11.52
-6 0 -2 32.57 12.54
-6 0 -1 420.64 24.72
0 -6 0 72.18 11.68
-6 0 0 63.2 12.95
-6 6 -1 78.05 14
0 -6 -1 68.35 13.58
0 6 2 752.29 29.95
-6 6 -2 801.06 29.9
0 -6 -2 765.82 30.31
0 6 3 16.05 11.87
0 -6 -3 10.62 9.1
0 -6 -4 38.63 12.37
0 -6 -5 21.65 13
-1 7 -4 68.3 14.7
-1 7 -3 116.64 17.75
-1 7 -2 143.38 17.29
-6 -1 -1 37.69 13.68
-6 -1 0 1351.07 41.11
-1 -6 -1 30.68 9.87
-6 7 -1 32.18 11.65
-1 7 2 70.63 12.52
-6 7 -2 60.09 12.72
-1 -6 -2 54.94 12.43
-1 -6 -3 65.85 13.61
-1 -6 -4 95.75 15.26
-2 8 -4 56.47 15.77
-2 8 -3 8.99 12.52
-2 -6 -2 4.42 10.15
-2 -6 -3 24.33 12.11
-2 -6 -4 69.18 14.82
-6 -3 -2 357.47 28.7
-3 -6 -2 148.31 18.87
3 4 -4 660.63 34.58
-7 3 -4 536.94 29.89
3 4 -3 33.37 11.8
-7 3 -3 39.76 12.6
-7 4 2 100 12.72
4 3 2 129.19 17.92
4 3 1 149.21 16.1
-7 4 1 137.24 14.1
-7 3 0 227.54 19.19
-7 4 0 80.86 15.57
-7 3 1 83.93 13.62
3 4 1 90.85 16.21
-7 4 -2 495.82 29.06
3 -7 -2 465.77 27.09
3 4 2 440.52 27.41
-7 4 -3 19.38 11.49
3 -7 -3 18.64 10.41
3 4 3 10.02 12.38
3 -7 -4 72.09 13.76
3 -7 -5 74.88 15.05
2 5 -5 50.03 16.03
2 5 -4 12.86 12.76
-7 2 -4 16.79 13.12
2 5 -3 58.62 14.01
-7 2 -3 66.83 15.69
5 2 2 26.65 13.34
-7 5 2 32.56 12.09
-7 5 1 41.72 11.88
5 2 1 60.55 14.3
-7 5 0 155.66 16.14
2 -7 0 169.2 16.79
-7 2 1 67.49 13.68
-7 5 -1 65.34 12.77
2 -7 -1 65.1 12.45
2 5 1 69.76 16.18
-7 5 -2 431.53 25.69
2 -7 -2 445.3 26.93
-7 5 -3 38.67 14.2
2 -7 -3 32.05 12.27
2 -7 -4 94.66 16.1
2 -7 -5 13.01 12.06
1 6 -4 149.61 21.36
-7 1 -4 127.38 19.56
1 6 -3 144.33 19.01
-7 1 -3 130.98 18.54
-7 1 -2 196.4 19.7
-7 1 -1 15.64 13.24
-7 6 1 32.96 11.24
-7 6 0 1322.82 43.01
-7 1 0 917.76 36.4
-7 6 -1 61.96 12.4
1 -7 -1 48.02 9.91
-7 6 -2 96.94 15.17
1 6 2 54.69 14.86
1 -7 -2 75.3 12.31
1 -7 -3 110.94 15.13
1 6 3 74.79 16.68
1 -7 -4 31.06 11.07
0 7 -4 94.34 18.37
0 7 -3 19.95 12.46
-7 0 -2 334.67 25.39
-7 0 -1 15.11 12.81
-7 7 0 111.97 16.58
-7 0 0 116.78 16.72
-7 7 -1 165.39 18.41
0 -7 -1 167.18 17.98
0 7 2 9.67 12.51
-7 7 -2 7.76 10.16
0 -7 -2 8 11.76
0 7 3 58.44 16.19
0 -7 -3 62.15 15.58
0 -7 -4 60.67 15.05
-1 8 -3 21.15 13.7
-7 8 -1 41.19 14.1
-1 -7 -2 170.73 19.83
-1 -7 -3 38.11 14.54
-7 9 -1 26.47 13.4
-2 -7 -2 173.47 18.77
-8 4 0 54.61 12.97
-8 4 -1 6.55 12.57
-8 4 1 26.89 12.08
4 4 1 32.61 13.29
-8 4 -2 84.86 16.67
4 4 2 314.53 26.97
-8 4 -3 53.29 15.7
4 4 3 67.43 16.49
-8 4 -4 86.19 18.31
-8 3 -4 90.86 18.14
-8 3 -3 169.71 21.68
5 3 2 28.75 14.14
-8 5 2 23.4 10.56
-8 5 1 48 11.4
5 3 1 68.13 17.06
-8 5 0 275.56 24.38
5 3 0 292.48 24.2
3 5 1 31.21 13.1
-8 3 1 36.65 13.95
-8 5 -1 39.82 13.75
-8 5 -2 37.53 14.91
3 -8 -2 35.88 13.03
3 5 2 75.34 16.9
-8 5 -3 122.23 18.17
3 -8 -3 129.84 18.77
3 -8 -4 101.65 17.62
2 6 -4 93.91 17.54
-8 2 -4 74.34 17.49
-8 2 -3 16.94 14.06
-8 6 2 128.59 16.61
-8 2 -2 51.85 16.48
-8 6 1 64.6 13.96
-8 2 -1 107.52 18.04
-8 6 0 32.09 12.3
-8 2 0 141.46 18.45
-8 6 -1 54.87 14.07
2 -8 -1 49.44 12.67
2 6 1 58.3 17.19
2 6 2 7.87 14.57
-8 6 -2 20.74 12.74
2 -8 -2 26.34 12.53
-8 6 -3 111.72 18.84
2 -8 -3 100.87 17.13
2 -8 -4 60.34 15.44
-8 1 -3 81.23 18.38
-8 7 3 11.81 11.89
-8 7 2 24.84 13.6
-8 1 -2 114.44 19.47
-8 1 -1 85.04 16.61
-8 7 1 66.1 14.64
-8 7 0 37.27 13.71
-8 1 0 115.49 18.03
-8 7 -1 96.62 15.62
1 -8 -1 96.86 16.03
1 7 2 184.45 23.15
-8 7 -2 243.23 24.51
1 -8 -2 181.98 18.8
1 7 3 37.31 15.56
1 -8 -3 16.59 10.07
-8 0 -2 3.93 15
-8 0 -1 30.89 15.23
-8 8 1 41.35 14.46
-8 8 0 82.08 16.62
-8 8 -1 18.33 12.7
0 8 1 15.43 15.54
0 8 2 111.59 20.5
-8 8 -2 99.19 15.27
0 -8 -2 96.59 15.55
-8 9 -1 12.82 12.82
-9 4 -3 47.99 17.74
5 4 2 15.2 15.76
-9 4 -2 32.13 16.02
5 4 1 46.73 17.68
-9 5 1 32.82 14.53
-9 4 0 82.92 18.38
-9 5 0 154.04 19.18
5 4 0 172.37 20.68
4 5 0 90.11 21.27
4 5 1 31.23 13.76
-9 5 -1 21.04 15.66
-9 4 1 26.85 14.7
-9 5 -2 47.77 16.26
4 5 2 21.61 16.58
-9 5 -3 72.51 16.47
4 5 3 73.15 19.57
-9 6 2 291.47 21.94
-9 3 -2 265.36 26.65
-9 3 -1 36.04 15.22
-9 6 1 20.24 12.5
-9 3 0 134.19 17.76
-9 6 0 72.73 17.53
-9 6 -1 136.79 19.64
3 6 1 35.81 13.83
-9 6 -2 93.37 20
3 6 2 176.92 23.79
-9 6 -3 30.75 15.68
-9 2 -2 35.21 16.37
-9 7 2 36.29 13.67
-9 2 -1 34.63 16.5
-9 7 1 15.43 11.72
-9 2 0 72.1 18.01
-9 7 0 49.95 13.45
2 7 1 16.58 14.36
-9 7 -1 50.61 17.59
-9 7 -2 40.15 15.38
2 -9 -2 38.63 13.84
